c description: Random 3-CNF over 15 variables and 64 clauses
c generator: CNFgen (0.9.2)
c copyright: (C) 2012-2022 Massimo Lauria <massimo.lauria@uniroma1.it>
c url: https://massimolauria.net/cnfgen
c command line: cnfgen --output CNF_4.28/15_bit_64_272.cnf randkcnf 3 15 64
c
p cnf 15 64
5 -9 -14 0
4 7 13 0
-1 -4 11 0
-6 -10 14 0
-4 8 13 0
-8 9 -15 0
3 -6 -10 0
5 -8 -13 0
7 12 -14 0
-6 -10 -15 0
-1 -2 -15 0
-10 -11 13 0
-1 8 -9 0
-4 -5 15 0
6 -7 -8 0
1 5 -6 0
2 -6 -10 0
6 -10 14 0
2 -5 -10 0
3 -8 10 0
5 6 10 0
-2 -10 13 0
1 2 12 0
2 6 -12 0
-2 6 15 0
4 -5 12 0
1 2 13 0
-6 -9 -14 0
-4 6 12 0
-2 4 -9 0
-9 -10 14 0
4 6 8 0
3 7 12 0
-7 10 -13 0
-5 -12 15 0
-11 12 -13 0
-11 -12 -15 0
-9 -14 15 0
2 11 -14 0
9 -12 -13 0
-5 -9 14 0
-1 -12 14 0
-8 -12 -15 0
-1 -6 7 0
-4 6 8 0
1 9 15 0
1 10 -11 0
3 -7 -9 0
3 7 10 0
1 7 -10 0
-6 14 -15 0
3 10 14 0
-2 -9 15 0
2 -9 13 0
-8 -12 14 0
2 5 -11 0
8 -9 -10 0
10 11 -12 0
9 -10 -11 0
3 -6 9 0
6 -9 -10 0
2 5 -8 0
-7 8 -9 0
2 -6 -11 0
